NAME : single
TYPE : ATSP
DIMENSION : 6
EDGE_WEIGHT_TYPE : EXPLICIT
EDGE_WEIGHT_FORMAT : FULL_MATRIX
EDGE_WEIGHT_SECTION
0 139 743 858 797 183 
0 0 503 540 486 141 
0 503 0 196 273 482 
0 540 196 0 129 522 
0 486 273 129 0 471 
0 141 482 522 471 0 
EOF